5 5
1 25 0 71 2 7 3 59 4 33
0 41 2 33 3 29 4 39 1 57
3 96 4 93 0 64 2 86 1 66
4 9 3 29 0 97 2 74 1 28
4 53 2 46 1 39 0 76 3 58
-1
0 2 3 4 5
0 1 2 4 5
0 2 5
0 2 5
0 1 3 5
-2
134 161 218 249
45 101 170 286
279 449
51 296
75 138 287

443 6
5 1 17 12 23
0 22 9 19 14
6 21 2 18 13
16 10 3 7 24
15 20 11 8 4
